NAME /Users/henri/Research/solvers/instances/idol-instances/robust/collection/spp_dkp_Lefebvre_et_al_2026/shortest_path_11_9/uncertainty_sets/discrete_knapsack
ROWS
 N  OBJ
 L  primal_lower
COLUMNS
    MARKER    'MARKER'                 'INTORG'
    y[0,2]     OBJ        0
    y[0,2]     primal_lower -3.06
    y[0,3]     OBJ        0
    y[0,3]     primal_lower -0.2
    y[0,4]     OBJ        0
    y[0,4]     primal_lower -1.55
    y[0,5]     OBJ        0
    y[0,5]     primal_lower -2.91
    y[0,7]     OBJ        0
    y[0,7]     primal_lower -1.29
    y[0,8]     OBJ        0
    y[0,8]     primal_lower -4.29
    y[0,10]    OBJ        0
    y[0,10]    primal_lower -0.71
    y[1,2]     OBJ        0
    y[1,2]     primal_lower -1.75
    y[1,3]     OBJ        0
    y[1,3]     primal_lower -2.67
    y[1,4]     OBJ        0
    y[1,4]     primal_lower -2.21
    y[1,6]     OBJ        0
    y[1,6]     primal_lower -0.79
    y[1,9]     OBJ        0
    y[1,9]     primal_lower -0.99
    y[1,10]    OBJ        0
    y[1,10]    primal_lower -2.93
    y[2,0]     OBJ        0
    y[2,0]     primal_lower -1.13
    y[2,1]     OBJ        0
    y[2,1]     primal_lower -1.86
    y[2,3]     OBJ        0
    y[2,3]     primal_lower -0.22
    y[2,4]     OBJ        0
    y[2,4]     primal_lower -1.46
    y[2,8]     OBJ        0
    y[2,8]     primal_lower -1.32
    y[2,9]     OBJ        0
    y[2,9]     primal_lower -2.01
    y[2,10]    OBJ        0
    y[2,10]    primal_lower -0.27
    y[3,0]     OBJ        0
    y[3,0]     primal_lower -3.41
    y[3,1]     OBJ        0
    y[3,1]     primal_lower -3.3
    y[3,2]     OBJ        0
    y[3,2]     primal_lower -2.55
    y[3,4]     OBJ        0
    y[3,4]     primal_lower -3.23
    y[3,6]     OBJ        0
    y[3,6]     primal_lower -2.63
    y[3,7]     OBJ        0
    y[3,7]     primal_lower -2.89
    y[3,8]     OBJ        0
    y[3,8]     primal_lower -3.6
    y[3,9]     OBJ        0
    y[3,9]     primal_lower -3.93
    y[3,10]    OBJ        0
    y[3,10]    primal_lower -1.58
    y[4,0]     OBJ        0
    y[4,0]     primal_lower -1.39
    y[4,1]     OBJ        0
    y[4,1]     primal_lower -2.73
    y[4,2]     OBJ        0
    y[4,2]     primal_lower -1.68
    y[4,3]     OBJ        0
    y[4,3]     primal_lower -3.91
    y[4,5]     OBJ        0
    y[4,5]     primal_lower -3.22
    y[4,6]     OBJ        0
    y[4,6]     primal_lower -1.91
    y[4,7]     OBJ        0
    y[4,7]     primal_lower -3.97
    y[4,8]     OBJ        0
    y[4,8]     primal_lower -0.09
    y[4,9]     OBJ        0
    y[4,9]     primal_lower -2.07
    y[4,10]    OBJ        0
    y[4,10]    primal_lower -0.76
    y[5,0]     OBJ        0
    y[5,0]     primal_lower -3.81
    y[5,4]     OBJ        0
    y[5,4]     primal_lower -0.56
    y[5,6]     OBJ        0
    y[5,6]     primal_lower -3.36
    y[5,7]     OBJ        0
    y[5,7]     primal_lower -3.83
    y[5,8]     OBJ        0
    y[5,8]     primal_lower -0.79
    y[5,9]     OBJ        0
    y[5,9]     primal_lower -1.23
    y[6,1]     OBJ        0
    y[6,1]     primal_lower -4.17
    y[6,3]     OBJ        0
    y[6,3]     primal_lower -2.94
    y[6,4]     OBJ        0
    y[6,4]     primal_lower -1.43
    y[6,5]     OBJ        0
    y[6,5]     primal_lower -1.88
    y[6,7]     OBJ        0
    y[6,7]     primal_lower -0.74
    y[6,8]     OBJ        0
    y[6,8]     primal_lower -0.89
    y[6,9]     OBJ        0
    y[6,9]     primal_lower -0.89
    y[6,10]    OBJ        0
    y[6,10]    primal_lower -3.86
    y[7,0]     OBJ        0
    y[7,0]     primal_lower -3.12
    y[7,3]     OBJ        0
    y[7,3]     primal_lower -0.46
    y[7,4]     OBJ        0
    y[7,4]     primal_lower -1.48
    y[7,5]     OBJ        0
    y[7,5]     primal_lower -2.63
    y[7,6]     OBJ        0
    y[7,6]     primal_lower -0.05
    y[7,8]     OBJ        0
    y[7,8]     primal_lower -0.98
    y[7,9]     OBJ        0
    y[7,9]     primal_lower -3.16
    y[7,10]    OBJ        0
    y[7,10]    primal_lower -1.24
    y[8,0]     OBJ        0
    y[8,0]     primal_lower -1.7
    y[8,2]     OBJ        0
    y[8,2]     primal_lower -0.19
    y[8,3]     OBJ        0
    y[8,3]     primal_lower -0.34
    y[8,4]     OBJ        0
    y[8,4]     primal_lower -1.15
    y[8,5]     OBJ        0
    y[8,5]     primal_lower -0.13
    y[8,6]     OBJ        0
    y[8,6]     primal_lower -0.79
    y[8,7]     OBJ        0
    y[8,7]     primal_lower -2.1
    y[8,9]     OBJ        0
    y[8,9]     primal_lower -3.64
    y[8,10]    OBJ        0
    y[8,10]    primal_lower -2.95
    y[9,1]     OBJ        0
    y[9,1]     primal_lower -4.09
    y[9,2]     OBJ        0
    y[9,2]     primal_lower -2.88
    y[9,3]     OBJ        0
    y[9,3]     primal_lower -2.42
    y[9,4]     OBJ        0
    y[9,4]     primal_lower -1.43
    y[9,5]     OBJ        0
    y[9,5]     primal_lower -0.51
    y[9,6]     OBJ        0
    y[9,6]     primal_lower -3.05
    y[9,7]     OBJ        0
    y[9,7]     primal_lower -2.26
    y[9,8]     OBJ        0
    y[9,8]     primal_lower -2.18
    y[9,10]    OBJ        0
    y[9,10]    primal_lower -2.72
    y[10,0]    OBJ        0
    y[10,0]    primal_lower -2.33
    y[10,1]    OBJ        0
    y[10,1]    primal_lower -4.01
    y[10,2]    OBJ        0
    y[10,2]    primal_lower -0.58
    y[10,3]    OBJ        0
    y[10,3]    primal_lower -0.94
    y[10,4]    OBJ        0
    y[10,4]    primal_lower -4.03
    y[10,6]    OBJ        0
    y[10,6]    primal_lower -0.03
    y[10,7]    OBJ        0
    y[10,7]    primal_lower -1.59
    y[10,8]    OBJ        0
    y[10,8]    primal_lower -0.03
    y[10,9]    OBJ        0
    y[10,9]    primal_lower -3.13
    u[0,2]     OBJ        0
    u[0,2]     primal_lower 6
    u[0,3]     OBJ        0
    u[0,3]     primal_lower 63
    u[0,4]     OBJ        0
    u[0,4]     primal_lower 43
    u[0,5]     OBJ        0
    u[0,5]     primal_lower 43
    u[0,7]     OBJ        0
    u[0,7]     primal_lower 45
    u[0,8]     OBJ        0
    u[0,8]     primal_lower 77
    u[0,10]    OBJ        0
    u[0,10]    primal_lower 26
    u[1,2]     OBJ        0
    u[1,2]     primal_lower 13
    u[1,3]     OBJ        0
    u[1,3]     primal_lower 27
    u[1,4]     OBJ        0
    u[1,4]     primal_lower 46
    u[1,6]     OBJ        0
    u[1,6]     primal_lower 96
    u[1,9]     OBJ        0
    u[1,9]     primal_lower 10
    u[1,10]    OBJ        0
    u[1,10]    primal_lower 16
    u[2,0]     OBJ        0
    u[2,0]     primal_lower 62
    u[2,1]     OBJ        0
    u[2,1]     primal_lower 98
    u[2,3]     OBJ        0
    u[2,3]     primal_lower 76
    u[2,4]     OBJ        0
    u[2,4]     primal_lower 56
    u[2,8]     OBJ        0
    u[2,8]     primal_lower 39
    u[2,9]     OBJ        0
    u[2,9]     primal_lower 61
    u[2,10]    OBJ        0
    u[2,10]    primal_lower 83
    u[3,0]     OBJ        0
    u[3,0]     primal_lower 58
    u[3,1]     OBJ        0
    u[3,1]     primal_lower 4
    u[3,2]     OBJ        0
    u[3,2]     primal_lower 54
    u[3,4]     OBJ        0
    u[3,4]     primal_lower 84
    u[3,6]     OBJ        0
    u[3,6]     primal_lower 27
    u[3,7]     OBJ        0
    u[3,7]     primal_lower 8
    u[3,8]     OBJ        0
    u[3,8]     primal_lower 43
    u[3,9]     OBJ        0
    u[3,9]     primal_lower 51
    u[3,10]    OBJ        0
    u[3,10]    primal_lower 39
    u[4,0]     OBJ        0
    u[4,0]     primal_lower 88
    u[4,1]     OBJ        0
    u[4,1]     primal_lower 67
    u[4,2]     OBJ        0
    u[4,2]     primal_lower 73
    u[4,3]     OBJ        0
    u[4,3]     primal_lower 52
    u[4,5]     OBJ        0
    u[4,5]     primal_lower 31
    u[4,6]     OBJ        0
    u[4,6]     primal_lower 63
    u[4,7]     OBJ        0
    u[4,7]     primal_lower 47
    u[4,8]     OBJ        0
    u[4,8]     primal_lower 52
    u[4,9]     OBJ        0
    u[4,9]     primal_lower 19
    u[4,10]    OBJ        0
    u[4,10]    primal_lower 93
    u[5,0]     OBJ        0
    u[5,0]     primal_lower 2
    u[5,4]     OBJ        0
    u[5,4]     primal_lower 44
    u[5,6]     OBJ        0
    u[5,6]     primal_lower 78
    u[5,7]     OBJ        0
    u[5,7]     primal_lower 50
    u[5,8]     OBJ        0
    u[5,8]     primal_lower 56
    u[5,9]     OBJ        0
    u[5,9]     primal_lower 63
    u[6,1]     OBJ        0
    u[6,1]     primal_lower 21
    u[6,3]     OBJ        0
    u[6,3]     primal_lower 49
    u[6,4]     OBJ        0
    u[6,4]     primal_lower 9
    u[6,5]     OBJ        0
    u[6,5]     primal_lower 31
    u[6,7]     OBJ        0
    u[6,7]     primal_lower 14
    u[6,8]     OBJ        0
    u[6,8]     primal_lower 43
    u[6,9]     OBJ        0
    u[6,9]     primal_lower 27
    u[6,10]    OBJ        0
    u[6,10]    primal_lower 41
    u[7,0]     OBJ        0
    u[7,0]     primal_lower 81
    u[7,3]     OBJ        0
    u[7,3]     primal_lower 62
    u[7,4]     OBJ        0
    u[7,4]     primal_lower 4
    u[7,5]     OBJ        0
    u[7,5]     primal_lower 48
    u[7,6]     OBJ        0
    u[7,6]     primal_lower 63
    u[7,8]     OBJ        0
    u[7,8]     primal_lower 26
    u[7,9]     OBJ        0
    u[7,9]     primal_lower 37
    u[7,10]    OBJ        0
    u[7,10]    primal_lower 88
    u[8,0]     OBJ        0
    u[8,0]     primal_lower 2
    u[8,2]     OBJ        0
    u[8,2]     primal_lower 74
    u[8,3]     OBJ        0
    u[8,3]     primal_lower 53
    u[8,4]     OBJ        0
    u[8,4]     primal_lower 18
    u[8,5]     OBJ        0
    u[8,5]     primal_lower 17
    u[8,6]     OBJ        0
    u[8,6]     primal_lower 92
    u[8,7]     OBJ        0
    u[8,7]     primal_lower 80
    u[8,9]     OBJ        0
    u[8,9]     primal_lower 55
    u[8,10]    OBJ        0
    u[8,10]    primal_lower 92
    u[9,1]     OBJ        0
    u[9,1]     primal_lower 72
    u[9,2]     OBJ        0
    u[9,2]     primal_lower 46
    u[9,3]     OBJ        0
    u[9,3]     primal_lower 63
    u[9,4]     OBJ        0
    u[9,4]     primal_lower 10
    u[9,5]     OBJ        0
    u[9,5]     primal_lower 55
    u[9,6]     OBJ        0
    u[9,6]     primal_lower 84
    u[9,7]     OBJ        0
    u[9,7]     primal_lower 59
    u[9,8]     OBJ        0
    u[9,8]     primal_lower 23
    u[9,10]    OBJ        0
    u[9,10]    primal_lower 49
    u[10,0]    OBJ        0
    u[10,0]    primal_lower 40
    u[10,1]    OBJ        0
    u[10,1]    primal_lower 50
    u[10,2]    OBJ        0
    u[10,2]    primal_lower 81
    u[10,3]    OBJ        0
    u[10,3]    primal_lower 72
    u[10,4]    OBJ        0
    u[10,4]    primal_lower 58
    u[10,6]    OBJ        0
    u[10,6]    primal_lower 93
    u[10,7]    OBJ        0
    u[10,7]    primal_lower 86
    u[10,8]    OBJ        0
    u[10,8]    primal_lower 16
    u[10,9]    OBJ        0
    u[10,9]    primal_lower 68
    MARKER    'MARKER'                 'INTEND'
RHS
    RHS       primal_lower 398
BOUNDS
 LI BND       y[0,2]     0
 UI BND       y[0,2]     1
 LI BND       y[0,3]     0
 UI BND       y[0,3]     1
 LI BND       y[0,4]     0
 UI BND       y[0,4]     1
 LI BND       y[0,5]     0
 UI BND       y[0,5]     1
 LI BND       y[0,7]     0
 UI BND       y[0,7]     1
 LI BND       y[0,8]     0
 UI BND       y[0,8]     1
 LI BND       y[0,10]    0
 UI BND       y[0,10]    1
 LI BND       y[1,2]     0
 UI BND       y[1,2]     1
 LI BND       y[1,3]     0
 UI BND       y[1,3]     1
 LI BND       y[1,4]     0
 UI BND       y[1,4]     1
 LI BND       y[1,6]     0
 UI BND       y[1,6]     1
 LI BND       y[1,9]     0
 UI BND       y[1,9]     1
 LI BND       y[1,10]    0
 UI BND       y[1,10]    1
 LI BND       y[2,0]     0
 UI BND       y[2,0]     1
 LI BND       y[2,1]     0
 UI BND       y[2,1]     1
 LI BND       y[2,3]     0
 UI BND       y[2,3]     1
 LI BND       y[2,4]     0
 UI BND       y[2,4]     1
 LI BND       y[2,8]     0
 UI BND       y[2,8]     1
 LI BND       y[2,9]     0
 UI BND       y[2,9]     1
 LI BND       y[2,10]    0
 UI BND       y[2,10]    1
 LI BND       y[3,0]     0
 UI BND       y[3,0]     1
 LI BND       y[3,1]     0
 UI BND       y[3,1]     1
 LI BND       y[3,2]     0
 UI BND       y[3,2]     1
 LI BND       y[3,4]     0
 UI BND       y[3,4]     1
 LI BND       y[3,6]     0
 UI BND       y[3,6]     1
 LI BND       y[3,7]     0
 UI BND       y[3,7]     1
 LI BND       y[3,8]     0
 UI BND       y[3,8]     1
 LI BND       y[3,9]     0
 UI BND       y[3,9]     1
 LI BND       y[3,10]    0
 UI BND       y[3,10]    1
 LI BND       y[4,0]     0
 UI BND       y[4,0]     1
 LI BND       y[4,1]     0
 UI BND       y[4,1]     1
 LI BND       y[4,2]     0
 UI BND       y[4,2]     1
 LI BND       y[4,3]     0
 UI BND       y[4,3]     1
 LI BND       y[4,5]     0
 UI BND       y[4,5]     1
 LI BND       y[4,6]     0
 UI BND       y[4,6]     1
 LI BND       y[4,7]     0
 UI BND       y[4,7]     1
 LI BND       y[4,8]     0
 UI BND       y[4,8]     1
 LI BND       y[4,9]     0
 UI BND       y[4,9]     1
 LI BND       y[4,10]    0
 UI BND       y[4,10]    1
 LI BND       y[5,0]     0
 UI BND       y[5,0]     1
 LI BND       y[5,4]     0
 UI BND       y[5,4]     1
 LI BND       y[5,6]     0
 UI BND       y[5,6]     1
 LI BND       y[5,7]     0
 UI BND       y[5,7]     1
 LI BND       y[5,8]     0
 UI BND       y[5,8]     1
 LI BND       y[5,9]     0
 UI BND       y[5,9]     1
 LI BND       y[6,1]     0
 UI BND       y[6,1]     1
 LI BND       y[6,3]     0
 UI BND       y[6,3]     1
 LI BND       y[6,4]     0
 UI BND       y[6,4]     1
 LI BND       y[6,5]     0
 UI BND       y[6,5]     1
 LI BND       y[6,7]     0
 UI BND       y[6,7]     1
 LI BND       y[6,8]     0
 UI BND       y[6,8]     1
 LI BND       y[6,9]     0
 UI BND       y[6,9]     1
 LI BND       y[6,10]    0
 UI BND       y[6,10]    1
 LI BND       y[7,0]     0
 UI BND       y[7,0]     1
 LI BND       y[7,3]     0
 UI BND       y[7,3]     1
 LI BND       y[7,4]     0
 UI BND       y[7,4]     1
 LI BND       y[7,5]     0
 UI BND       y[7,5]     1
 LI BND       y[7,6]     0
 UI BND       y[7,6]     1
 LI BND       y[7,8]     0
 UI BND       y[7,8]     1
 LI BND       y[7,9]     0
 UI BND       y[7,9]     1
 LI BND       y[7,10]    0
 UI BND       y[7,10]    1
 LI BND       y[8,0]     0
 UI BND       y[8,0]     1
 LI BND       y[8,2]     0
 UI BND       y[8,2]     1
 LI BND       y[8,3]     0
 UI BND       y[8,3]     1
 LI BND       y[8,4]     0
 UI BND       y[8,4]     1
 LI BND       y[8,5]     0
 UI BND       y[8,5]     1
 LI BND       y[8,6]     0
 UI BND       y[8,6]     1
 LI BND       y[8,7]     0
 UI BND       y[8,7]     1
 LI BND       y[8,9]     0
 UI BND       y[8,9]     1
 LI BND       y[8,10]    0
 UI BND       y[8,10]    1
 LI BND       y[9,1]     0
 UI BND       y[9,1]     1
 LI BND       y[9,2]     0
 UI BND       y[9,2]     1
 LI BND       y[9,3]     0
 UI BND       y[9,3]     1
 LI BND       y[9,4]     0
 UI BND       y[9,4]     1
 LI BND       y[9,5]     0
 UI BND       y[9,5]     1
 LI BND       y[9,6]     0
 UI BND       y[9,6]     1
 LI BND       y[9,7]     0
 UI BND       y[9,7]     1
 LI BND       y[9,8]     0
 UI BND       y[9,8]     1
 LI BND       y[9,10]    0
 UI BND       y[9,10]    1
 LI BND       y[10,0]    0
 UI BND       y[10,0]    1
 LI BND       y[10,1]    0
 UI BND       y[10,1]    1
 LI BND       y[10,2]    0
 UI BND       y[10,2]    1
 LI BND       y[10,3]    0
 UI BND       y[10,3]    1
 LI BND       y[10,4]    0
 UI BND       y[10,4]    1
 LI BND       y[10,6]    0
 UI BND       y[10,6]    1
 LI BND       y[10,7]    0
 UI BND       y[10,7]    1
 LI BND       y[10,8]    0
 UI BND       y[10,8]    1
 LI BND       y[10,9]    0
 UI BND       y[10,9]    1
 LI BND       u[0,2]     0
 UI BND       u[0,2]     1
 LI BND       u[0,3]     0
 UI BND       u[0,3]     1
 LI BND       u[0,4]     0
 UI BND       u[0,4]     1
 LI BND       u[0,5]     0
 UI BND       u[0,5]     1
 LI BND       u[0,7]     0
 UI BND       u[0,7]     1
 LI BND       u[0,8]     0
 UI BND       u[0,8]     1
 LI BND       u[0,10]    0
 UI BND       u[0,10]    1
 LI BND       u[1,2]     0
 UI BND       u[1,2]     1
 LI BND       u[1,3]     0
 UI BND       u[1,3]     1
 LI BND       u[1,4]     0
 UI BND       u[1,4]     1
 LI BND       u[1,6]     0
 UI BND       u[1,6]     1
 LI BND       u[1,9]     0
 UI BND       u[1,9]     1
 LI BND       u[1,10]    0
 UI BND       u[1,10]    1
 LI BND       u[2,0]     0
 UI BND       u[2,0]     1
 LI BND       u[2,1]     0
 UI BND       u[2,1]     1
 LI BND       u[2,3]     0
 UI BND       u[2,3]     1
 LI BND       u[2,4]     0
 UI BND       u[2,4]     1
 LI BND       u[2,8]     0
 UI BND       u[2,8]     1
 LI BND       u[2,9]     0
 UI BND       u[2,9]     1
 LI BND       u[2,10]    0
 UI BND       u[2,10]    1
 LI BND       u[3,0]     0
 UI BND       u[3,0]     1
 LI BND       u[3,1]     0
 UI BND       u[3,1]     1
 LI BND       u[3,2]     0
 UI BND       u[3,2]     1
 LI BND       u[3,4]     0
 UI BND       u[3,4]     1
 LI BND       u[3,6]     0
 UI BND       u[3,6]     1
 LI BND       u[3,7]     0
 UI BND       u[3,7]     1
 LI BND       u[3,8]     0
 UI BND       u[3,8]     1
 LI BND       u[3,9]     0
 UI BND       u[3,9]     1
 LI BND       u[3,10]    0
 UI BND       u[3,10]    1
 LI BND       u[4,0]     0
 UI BND       u[4,0]     1
 LI BND       u[4,1]     0
 UI BND       u[4,1]     1
 LI BND       u[4,2]     0
 UI BND       u[4,2]     1
 LI BND       u[4,3]     0
 UI BND       u[4,3]     1
 LI BND       u[4,5]     0
 UI BND       u[4,5]     1
 LI BND       u[4,6]     0
 UI BND       u[4,6]     1
 LI BND       u[4,7]     0
 UI BND       u[4,7]     1
 LI BND       u[4,8]     0
 UI BND       u[4,8]     1
 LI BND       u[4,9]     0
 UI BND       u[4,9]     1
 LI BND       u[4,10]    0
 UI BND       u[4,10]    1
 LI BND       u[5,0]     0
 UI BND       u[5,0]     1
 LI BND       u[5,4]     0
 UI BND       u[5,4]     1
 LI BND       u[5,6]     0
 UI BND       u[5,6]     1
 LI BND       u[5,7]     0
 UI BND       u[5,7]     1
 LI BND       u[5,8]     0
 UI BND       u[5,8]     1
 LI BND       u[5,9]     0
 UI BND       u[5,9]     1
 LI BND       u[6,1]     0
 UI BND       u[6,1]     1
 LI BND       u[6,3]     0
 UI BND       u[6,3]     1
 LI BND       u[6,4]     0
 UI BND       u[6,4]     1
 LI BND       u[6,5]     0
 UI BND       u[6,5]     1
 LI BND       u[6,7]     0
 UI BND       u[6,7]     1
 LI BND       u[6,8]     0
 UI BND       u[6,8]     1
 LI BND       u[6,9]     0
 UI BND       u[6,9]     1
 LI BND       u[6,10]    0
 UI BND       u[6,10]    1
 LI BND       u[7,0]     0
 UI BND       u[7,0]     1
 LI BND       u[7,3]     0
 UI BND       u[7,3]     1
 LI BND       u[7,4]     0
 UI BND       u[7,4]     1
 LI BND       u[7,5]     0
 UI BND       u[7,5]     1
 LI BND       u[7,6]     0
 UI BND       u[7,6]     1
 LI BND       u[7,8]     0
 UI BND       u[7,8]     1
 LI BND       u[7,9]     0
 UI BND       u[7,9]     1
 LI BND       u[7,10]    0
 UI BND       u[7,10]    1
 LI BND       u[8,0]     0
 UI BND       u[8,0]     1
 LI BND       u[8,2]     0
 UI BND       u[8,2]     1
 LI BND       u[8,3]     0
 UI BND       u[8,3]     1
 LI BND       u[8,4]     0
 UI BND       u[8,4]     1
 LI BND       u[8,5]     0
 UI BND       u[8,5]     1
 LI BND       u[8,6]     0
 UI BND       u[8,6]     1
 LI BND       u[8,7]     0
 UI BND       u[8,7]     1
 LI BND       u[8,9]     0
 UI BND       u[8,9]     1
 LI BND       u[8,10]    0
 UI BND       u[8,10]    1
 LI BND       u[9,1]     0
 UI BND       u[9,1]     1
 LI BND       u[9,2]     0
 UI BND       u[9,2]     1
 LI BND       u[9,3]     0
 UI BND       u[9,3]     1
 LI BND       u[9,4]     0
 UI BND       u[9,4]     1
 LI BND       u[9,5]     0
 UI BND       u[9,5]     1
 LI BND       u[9,6]     0
 UI BND       u[9,6]     1
 LI BND       u[9,7]     0
 UI BND       u[9,7]     1
 LI BND       u[9,8]     0
 UI BND       u[9,8]     1
 LI BND       u[9,10]    0
 UI BND       u[9,10]    1
 LI BND       u[10,0]    0
 UI BND       u[10,0]    1
 LI BND       u[10,1]    0
 UI BND       u[10,1]    1
 LI BND       u[10,2]    0
 UI BND       u[10,2]    1
 LI BND       u[10,3]    0
 UI BND       u[10,3]    1
 LI BND       u[10,4]    0
 UI BND       u[10,4]    1
 LI BND       u[10,6]    0
 UI BND       u[10,6]    1
 LI BND       u[10,7]    0
 UI BND       u[10,7]    1
 LI BND       u[10,8]    0
 UI BND       u[10,8]    1
 LI BND       u[10,9]    0
 UI BND       u[10,9]    1
ENDATA
